; benchmark generated from python API
(set-info :status unknown)
(declare-fun DISJ_W_S1_R_S1 () Bool)
(declare-fun DISJ_W_S2_R_S1 () Bool)
(declare-fun W_S2_V3 () Bool)
(declare-fun W_S1_V4 () Bool)
(declare-fun R_S2_V5 () Bool)
(declare-fun R_S1_V1 () Bool)
(declare-fun R_S2_V4 () Bool)
(declare-fun W_S1_V5 () Bool)
(declare-fun W_S2_V5 () Bool)
(declare-fun R_S2_V3 () Bool)
(declare-fun DISJ_W_S1_W_S2 () Bool)
(declare-fun DISJ_W_S1_R_S2 () Bool)
(declare-fun R_S1_V4 () Bool)
(declare-fun R_S1_V5 () Bool)
(declare-fun DISJ_W_S2_R_S2 () Bool)
(declare-fun R_E1_V4 () Bool)
(declare-fun R_E1_V5 () Bool)
(declare-fun W_S2_V2 () Bool)
(declare-fun W_S2_V1 () Bool)
(declare-fun R_S2_V2 () Bool)
(declare-fun R_S2_V1 () Bool)
(declare-fun R_S1_V2 () Bool)
(declare-fun R_S1_V3 () Bool)
(declare-fun R_E1_V2 () Bool)
(declare-fun DISJ_W_S2_R_E1 () Bool)
(declare-fun R_E1_V3 () Bool)
(declare-fun W_S2_V4 () Bool)
(declare-fun W_S1_V3 () Bool)
(declare-fun W_S1_V2 () Bool)
(declare-fun W_S1_V1 () Bool)
(declare-fun R_E1_V1 () Bool)
(declare-fun DISJ_W_S1_R_E1 () Bool)
(assert
 (let (($x2193 (not W_S2_V3)))
 (let (($x671 (not W_S1_V4)))
 (let (($x6073 (not R_S2_V5)))
 (let (($x2022 (not R_S1_V1)))
 (let (($x1659 (not (and $x2022 $x6073 $x671 $x2193 DISJ_W_S2_R_S1 DISJ_W_S1_R_S1))))
 (let (($x1649 (not R_S2_V4)))
 (let (($x5791 (and $x6073 $x1649 $x2193 DISJ_W_S2_R_S1)))
 (let (($x4156 (not $x5791)))
 (let (($x401 (not (and $x2022 $x1649 (not W_S1_V5) $x2193 DISJ_W_S2_R_S1 DISJ_W_S1_R_S1))))
 (let (($x1555 (not W_S2_V5)))
 (let (($x1277 (not R_S2_V3)))
 (let (($x873 (and $x1277 $x1649 $x1555 DISJ_W_S2_R_S1)))
 (let (($x3235 (not $x873)))
 (let (($x1395 (and $x1649 $x1555 $x2193 DISJ_W_S2_R_S1)))
 (let (($x2614 (not $x1395)))
 (let (($x987 (not (and $x2022 $x1277 $x671 $x1555 DISJ_W_S2_R_S1 DISJ_W_S1_R_S1))))
 (let (($x3137 (not (and $x2022 DISJ_W_S2_R_S1 DISJ_W_S1_W_S2 DISJ_W_S1_R_S1))))
 (let (($x2850 (and DISJ_W_S1_R_S2 DISJ_W_S2_R_S1)))
 (let (($x951 (not $x2850)))
 (let (($x5292 (not W_S1_V5)))
 (let (($x788 (not R_S1_V4)))
 (let (($x5954 (not R_S1_V5)))
 (let (($x1126 (not (and $x5954 $x788 $x5292 $x671 DISJ_W_S1_R_S2))))
 (let (($x2402 (not (and $x788 $x5292 $x671 $x1555 DISJ_W_S1_R_S2))))
 (let (($x2018 (and DISJ_W_S2_R_S1 DISJ_W_S2_R_S2)))
 (let (($x1702 (not $x2018)))
 (let (($x191 (not (and W_S1_V4 R_E1_V4))))
 (let (($x2612 (not (and W_S1_V5 R_E1_V5))))
 (let (($x5232 (forall ((V3_0 Int) )(forall ((V2_0 Int) )(forall ((V5_0 Int) )(forall ((V4_0 Int) )(forall ((MW_S1_V1 Bool) )(forall ((MW_S1_V3 Bool) )(forall ((MW_S1_V2 Bool) )(forall ((MW_S1_V5 Bool) )(forall ((MW_S1_V4 Bool) )(forall ((MW_S2_V1 Bool) )(forall ((MW_S2_V3 Bool) )(forall ((MW_S2_V2 Bool) )(forall ((MW_S2_V5 Bool) )(forall ((MW_S2_V4 Bool) )(forall ((S1_V1_!6442 Int) )(forall ((S1_V1_!6447 Int) )(forall ((S1_V1_!6464 Int) )(forall ((S1_V1_!6474 Int) )(forall ((S2_V5_!6456 Int) )(forall ((S2_V5_!6461 Int) )(forall ((S2_V5_!6472 Int) )(forall ((S2_V5_!6482 Int) )(forall ((S1_V3_!6443 Int) )(forall ((S1_V3_!6448 Int) )(forall ((S1_V3_!6465 Int) )(forall ((S1_V3_!6475 Int) )(forall ((S1_V2_!6444 Int) )(forall ((S1_V2_!6449 Int) )(forall ((S1_V2_!6466 Int) )(forall ((S1_V2_!6476 Int) )(forall ((E1_!6441 Int) )(forall ((E1_!6452 Int) )(forall ((E1_!6463 Int) )(forall ((S2_V4_!6457 Int) )(forall ((S2_V4_!6462 Int) )(forall ((S2_V4_!6473 Int) )(forall ((S2_V4_!6483 Int) )(forall ((S1_V5_!6445 Int) )(forall ((S1_V5_!6450 Int) )(forall ((S1_V5_!6467 Int) )(forall ((S1_V5_!6477 Int) )(forall ((S2_V1_!6453 Int) )(forall ((S2_V1_!6458 Int) )(forall ((S2_V1_!6469 Int) )(forall ((S2_V1_!6479 Int) )(forall ((S1_V4_!6446 Int) )(forall ((S1_V4_!6451 Int) )(forall ((S1_V4_!6468 Int) )(forall ((S1_V4_!6478 Int) )(forall ((S2_V2_!6455 Int) )(forall ((S2_V2_!6460 Int) )(forall ((S2_V2_!6471 Int) )(forall ((S2_V2_!6481 Int) )(forall ((S2_V3_!6454 Int) )(forall ((S2_V3_!6459 Int) )(forall ((S2_V3_!6470 Int) )(forall ((S2_V3_!6480 Int) )(let (($x2352 (= (ite MW_S2_V4 S2_V4_!6462 (ite MW_S1_V4 S1_V4_!6451 V4_0)) (ite MW_S2_V4 S2_V4_!6483 (ite MW_S1_V4 S1_V4_!6478 (ite MW_S2_V4 S2_V4_!6473 (ite MW_S1_V4 S1_V4_!6468 V4_0)))))))
 (let (($x780 (= (ite MW_S2_V5 S2_V5_!6461 (ite MW_S1_V5 S1_V5_!6450 V5_0)) (ite MW_S2_V5 S2_V5_!6482 (ite MW_S1_V5 S1_V5_!6477 (ite MW_S2_V5 S2_V5_!6472 (ite MW_S1_V5 S1_V5_!6467 V5_0)))))))
 (let ((?x1604 (ite MW_S1_V2 S1_V2_!6466 V2_0)))
 (let ((?x1551 (ite MW_S2_V2 S2_V2_!6471 ?x1604)))
 (let ((?x1515 (ite MW_S1_V2 S1_V2_!6476 ?x1551)))
 (let ((?x3257 (ite MW_S2_V2 S2_V2_!6481 ?x1515)))
 (let ((?x5771 (ite MW_S1_V2 S1_V2_!6449 V2_0)))
 (let ((?x3181 (ite MW_S2_V2 S2_V2_!6460 ?x5771)))
 (let (($x1070 (= (ite MW_S2_V3 S2_V3_!6459 (ite MW_S1_V3 S1_V3_!6448 V3_0)) (ite MW_S2_V3 S2_V3_!6480 (ite MW_S1_V3 S1_V3_!6475 (ite MW_S2_V3 S2_V3_!6470 (ite MW_S1_V3 S1_V3_!6465 V3_0)))))))
 (let ((?x2265 (ite MW_S1_V1 S1_V1_!6464 E1_!6463)))
 (let ((?x744 (ite MW_S2_V1 S2_V1_!6469 ?x2265)))
 (let ((?x2146 (+ 1 ?x744)))
 (let ((?x1666 (ite MW_S1_V1 S1_V1_!6474 ?x2146)))
 (let ((?x680 (ite MW_S2_V1 S2_V1_!6479 ?x1666)))
 (let ((?x2639 (ite MW_S2_V1 S2_V1_!6453 E1_!6452)))
 (let ((?x875 (+ 1 ?x2639)))
 (let ((?x5770 (ite MW_S2_V1 S2_V1_!6458 ?x875)))
 (let (($x889 (>= (ite MW_S1_V1 S1_V1_!6447 (+ 1 (ite MW_S1_V1 S1_V1_!6442 E1_!6441))) (+ (- 1) ?x5771))))
 (let (($x5026 (and (not (<= V2_0 E1_!6441)) (not (<= (ite MW_S1_V2 S1_V2_!6444 V2_0) (+ 1 (ite MW_S1_V1 S1_V1_!6442 E1_!6441)))) $x889 (not (<= ?x5771 E1_!6452)) (not (<= (ite MW_S2_V2 S2_V2_!6455 ?x5771) ?x875)) (>= ?x5770 (+ (- 1) ?x3181)) (not (<= V2_0 E1_!6463)) (not (<= ?x1551 ?x2146)) (>= ?x680 (+ (- 1) ?x3257)))))
 (let (($x2826 (= S2_V3_!6470 S2_V3_!6480)))
 (let ((?x3026 (ite MW_S1_V4 S1_V4_!6468 V4_0)))
 (let ((?x2386 (ite MW_S2_V4 S2_V4_!6473 ?x3026)))
 (let ((?x2411 (ite MW_S1_V4 S1_V4_!6478 ?x2386)))
 (let (($x1649 (not R_S2_V4)))
 (let ((?x5903 (ite MW_S1_V5 S1_V5_!6467 V5_0)))
 (let ((?x892 (ite MW_S2_V5 S2_V5_!6472 ?x5903)))
 (let ((?x1357 (ite MW_S1_V5 S1_V5_!6477 ?x892)))
 (let (($x6073 (not R_S2_V5)))
 (let ((?x4320 (ite MW_S1_V3 S1_V3_!6465 V3_0)))
 (let ((?x4051 (ite MW_S2_V3 S2_V3_!6470 ?x4320)))
 (let ((?x3008 (ite MW_S1_V3 S1_V3_!6475 ?x4051)))
 (let (($x1277 (not R_S2_V3)))
 (let (($x1885 (and (or (not R_S2_V1) (= ?x2265 ?x1666)) (or $x1277 (= ?x4320 ?x3008)) (or (not R_S2_V2) (= ?x1604 ?x1515)) (or $x6073 (= ?x5903 ?x1357)) (or $x1649 (= ?x3026 ?x2411)))))
 (let (($x3196 (not $x1885)))
 (let (($x1893 (= S2_V3_!6470 S2_V3_!6454)))
 (let (($x2605 (and (or (not R_S2_V1) (= ?x2265 E1_!6452)) (or $x1277 (= ?x4320 (ite MW_S1_V3 S1_V3_!6448 V3_0))) (or (not R_S2_V2) (= ?x1604 ?x5771)) (or $x6073 (= ?x5903 (ite MW_S1_V5 S1_V5_!6450 V5_0))) (or $x1649 (= ?x3026 (ite MW_S1_V4 S1_V4_!6451 V4_0))))))
 (let (($x1298 (not $x2605)))
 (let (($x2281 (= S2_V3_!6459 S2_V3_!6480)))
 (let (($x5743 (and (or (not R_S2_V1) (= ?x2639 (+ (- 1) ?x1666))) (or $x1277 (= (ite MW_S2_V3 S2_V3_!6454 (ite MW_S1_V3 S1_V3_!6448 V3_0)) ?x3008)) (or (not R_S2_V2) (= (ite MW_S2_V2 S2_V2_!6455 ?x5771) ?x1515)) (or $x6073 (= (ite MW_S2_V5 S2_V5_!6456 (ite MW_S1_V5 S1_V5_!6450 V5_0)) ?x1357)) (or $x1649 (= (ite MW_S2_V4 S2_V4_!6457 (ite MW_S1_V4 S1_V4_!6451 V4_0)) ?x2411)))))
 (let (($x1212 (not $x5743)))
 (let (($x3492 (= S2_V3_!6459 S2_V3_!6470)))
 (let (($x2822 (and (or (not R_S2_V1) (= ?x2639 (+ (- 1) ?x2265))) (or $x1277 (= (ite MW_S2_V3 S2_V3_!6454 (ite MW_S1_V3 S1_V3_!6448 V3_0)) ?x4320)) (or (not R_S2_V2) (= (ite MW_S2_V2 S2_V2_!6455 ?x5771) ?x1604)) (or $x6073 (= (ite MW_S2_V5 S2_V5_!6456 (ite MW_S1_V5 S1_V5_!6450 V5_0)) ?x5903)) (or $x1649 (= (ite MW_S2_V4 S2_V4_!6457 (ite MW_S1_V4 S1_V4_!6451 V4_0)) ?x3026)))))
 (let (($x3753 (not $x2822)))
 (let (($x484 (= S2_V3_!6459 S2_V3_!6454)))
 (let (($x3994 (or $x1649 (= (ite MW_S2_V4 S2_V4_!6457 (ite MW_S1_V4 S1_V4_!6451 V4_0)) (ite MW_S1_V4 S1_V4_!6451 V4_0)))))
 (let (($x1700 (or $x6073 (= (ite MW_S2_V5 S2_V5_!6456 (ite MW_S1_V5 S1_V5_!6450 V5_0)) (ite MW_S1_V5 S1_V5_!6450 V5_0)))))
 (let (($x5216 (or $x1277 (= (ite MW_S2_V3 S2_V3_!6454 (ite MW_S1_V3 S1_V3_!6448 V3_0)) (ite MW_S1_V3 S1_V3_!6448 V3_0)))))
 (let (($x1337 (and (or (not R_S2_V1) (= ?x2639 (+ (- 1) E1_!6452))) $x5216 (or (not R_S2_V2) (= (ite MW_S2_V2 S2_V2_!6455 ?x5771) ?x5771)) $x1700 $x3994)))
 (let (($x1096 (not $x1337)))
 (let (($x1530 (= S2_V3_!6454 S2_V3_!6480)))
 (let (($x3503 (and (or (not R_S2_V1) (= E1_!6452 ?x1666)) (or $x1277 (= (ite MW_S1_V3 S1_V3_!6448 V3_0) ?x3008)) (or (not R_S2_V2) (= ?x5771 ?x1515)) (or $x6073 (= (ite MW_S1_V5 S1_V5_!6450 V5_0) ?x1357)) (or $x1649 (= (ite MW_S1_V4 S1_V4_!6451 V4_0) ?x2411)))))
 (let (($x1862 (not $x3503)))
 (let (($x2680 (= S2_V2_!6481 S2_V2_!6460)))
 (let (($x541 (and (or (not R_S2_V1) (= ?x1666 ?x875)) (or $x1277 (= ?x3008 (ite MW_S2_V3 S2_V3_!6454 (ite MW_S1_V3 S1_V3_!6448 V3_0)))) (or (not R_S2_V2) (= ?x1515 (ite MW_S2_V2 S2_V2_!6455 ?x5771))) (or $x6073 (= ?x1357 (ite MW_S2_V5 S2_V5_!6456 (ite MW_S1_V5 S1_V5_!6450 V5_0)))) (or $x1649 (= ?x2411 (ite MW_S2_V4 S2_V4_!6457 (ite MW_S1_V4 S1_V4_!6451 V4_0)))))))
 (let (($x2039 (= S2_V2_!6481 S2_V2_!6455)))
 (let (($x5077 (and (or (not R_S2_V1) (= ?x1666 E1_!6452)) (or $x1277 (= ?x3008 (ite MW_S1_V3 S1_V3_!6448 V3_0))) (or (not R_S2_V2) (= ?x1515 ?x5771)) (or $x6073 (= ?x1357 (ite MW_S1_V5 S1_V5_!6450 V5_0))) (or $x1649 (= ?x2411 (ite MW_S1_V4 S1_V4_!6451 V4_0))))))
 (let (($x4856 (not $x5077)))
 (let (($x1031 (= S2_V2_!6471 S2_V2_!6460)))
 (let (($x209 (and (or (not R_S2_V1) (= ?x2265 ?x875)) (or $x1277 (= ?x4320 (ite MW_S2_V3 S2_V3_!6454 (ite MW_S1_V3 S1_V3_!6448 V3_0)))) (or (not R_S2_V2) (= ?x1604 (ite MW_S2_V2 S2_V2_!6455 ?x5771))) (or $x6073 (= ?x5903 (ite MW_S2_V5 S2_V5_!6456 (ite MW_S1_V5 S1_V5_!6450 V5_0)))) (or $x1649 (= ?x3026 (ite MW_S2_V4 S2_V4_!6457 (ite MW_S1_V4 S1_V4_!6451 V4_0)))))))
 (let (($x1086 (and (or (not R_S1_V1) (= ?x744 (ite MW_S1_V1 S1_V1_!6442 E1_!6441))) (or (not R_S1_V3) (= ?x4051 (ite MW_S1_V3 S1_V3_!6443 V3_0))) (or (not R_S1_V2) (= ?x1551 (ite MW_S1_V2 S1_V2_!6444 V2_0))) (or (not R_S1_V5) (= ?x892 (ite MW_S1_V5 S1_V5_!6445 V5_0))) (or (not R_S1_V4) (= ?x2386 (ite MW_S1_V4 S1_V4_!6446 V4_0))))))
 (let (($x1901 (not $x1086)))
 (let (($x788 (not R_S1_V4)))
 (let (($x1130 (or $x788 (= V4_0 ?x2386))))
 (let (($x5954 (not R_S1_V5)))
 (let (($x3144 (or $x5954 (= V5_0 ?x892))))
 (let (($x2070 (not R_S1_V2)))
 (let (($x1506 (or $x2070 (= V2_0 ?x1551))))
 (let (($x3712 (not R_S1_V3)))
 (let (($x5190 (or $x3712 (= V3_0 ?x4051))))
 (let (($x3849 (not (and (or (not R_S1_V1) (= E1_!6463 ?x2146)) $x5190 $x1506 $x3144 $x1130))))
 (let (($x725 (or $x788 (= V4_0 (ite MW_S1_V4 S1_V4_!6446 V4_0)))))
 (let (($x1138 (or $x5954 (= V5_0 (ite MW_S1_V5 S1_V5_!6445 V5_0)))))
 (let (($x5107 (or $x2070 (= V2_0 (ite MW_S1_V2 S1_V2_!6444 V2_0)))))
 (let (($x1157 (or $x3712 (= V3_0 (ite MW_S1_V3 S1_V3_!6443 V3_0)))))
 (let (($x3393 (and (or (not R_S1_V1) (= E1_!6463 (+ 1 (ite MW_S1_V1 S1_V1_!6442 E1_!6441)))) $x1157 $x5107 $x1138 $x725)))
 (let (($x843 (not $x3393)))
 (let (($x1487 (not (and (or (not R_S1_V1) (= E1_!6441 ?x2146)) $x5190 $x1506 $x3144 $x1130))))
 (let (($x2463 (and (or (not R_S1_V1) (= E1_!6441 (+ 1 (ite MW_S1_V1 S1_V1_!6442 E1_!6441)))) $x1157 $x5107 $x1138 $x725)))
 (let (($x1160 (not $x2463)))
 (let (($x1723 (or $x788 (= ?x2386 V4_0))))
 (let (($x3914 (or $x5954 (= ?x892 V5_0))))
 (let (($x6028 (or $x2070 (= ?x1551 V2_0))))
 (let (($x4720 (or $x3712 (= ?x4051 V3_0))))
 (let (($x5462 (and (or (not R_S1_V1) (= ?x744 (+ (- 1) E1_!6463))) $x4720 $x6028 $x3914 $x1723)))
 (let (($x441 (not $x5462)))
 (let (($x1774 (and (or (not R_S1_V1) (= ?x744 (+ (- 1) E1_!6441))) $x4720 $x6028 $x3914 $x1723)))
 (let (($x1000 (not $x1774)))
 (let (($x2419 (= S2_V4_!6483 S2_V4_!6473)))
 (let (($x2347 (and (or (not R_S2_V1) (= ?x1666 ?x2265)) (or $x1277 (= ?x3008 ?x4320)) (or (not R_S2_V2) (= ?x1515 ?x1604)) (or $x6073 (= ?x1357 ?x5903)) (or $x1649 (= ?x2411 ?x3026)))))
 (let (($x5416 (= E1_!6452 E1_!6463)))
 (let (($x1055 (and (or (not R_E1_V2) (= ?x5771 V2_0)) (or (not R_E1_V5) (= (ite MW_S1_V5 S1_V5_!6450 V5_0) V5_0)) (or (not R_E1_V4) (= (ite MW_S1_V4 S1_V4_!6451 V4_0) V4_0)))))
 (let (($x2893 (= E1_!6441 E1_!6463)))
 (let (($x5909 (and (or (not R_E1_V2) (= V2_0 ?x5771)) (or (not R_E1_V5) (= V5_0 (ite MW_S1_V5 S1_V5_!6450 V5_0))) (or (not R_E1_V4) (= V4_0 (ite MW_S1_V4 S1_V4_!6451 V4_0))))))
 (let (($x3710 (= S1_V2_!6449 S1_V2_!6476)))
 (let (($x3437 (and (or (not R_S1_V1) (= (ite MW_S1_V1 S1_V1_!6442 E1_!6441) ?x744)) (or $x3712 (= (ite MW_S1_V3 S1_V3_!6443 V3_0) ?x4051)) (or $x2070 (= (ite MW_S1_V2 S1_V2_!6444 V2_0) ?x1551)) (or $x5954 (= (ite MW_S1_V5 S1_V5_!6445 V5_0) ?x892)) (or $x788 (= (ite MW_S1_V4 S1_V4_!6446 V4_0) ?x2386)))))
 (let (($x5054 (not $x3437)))
 (let (($x899 (or $x788 (= (ite MW_S1_V4 S1_V4_!6446 V4_0) V4_0))))
 (let (($x1413 (or $x5954 (= (ite MW_S1_V5 S1_V5_!6445 V5_0) V5_0))))
 (let (($x549 (or $x2070 (= (ite MW_S1_V2 S1_V2_!6444 V2_0) V2_0))))
 (let (($x1185 (or $x3712 (= (ite MW_S1_V3 S1_V3_!6443 V3_0) V3_0))))
 (let (($x1017 (and (or (not R_S1_V1) (= (ite MW_S1_V1 S1_V1_!6442 E1_!6441) (+ (- 1) E1_!6463))) $x1185 $x549 $x1413 $x899)))
 (let (($x5726 (not $x1017)))
 (let (($x1479 (and (or (not R_S1_V1) (= (ite MW_S1_V1 S1_V1_!6442 E1_!6441) (+ (- 1) E1_!6441))) $x1185 $x549 $x1413 $x899)))
 (let (($x5851 (not $x1479)))
 (let (($x256 (and (or (not R_S2_V1) (= E1_!6452 ?x2265)) (or $x1277 (= (ite MW_S1_V3 S1_V3_!6448 V3_0) ?x4320)) (or (not R_S2_V2) (= ?x5771 ?x1604)) (or $x6073 (= (ite MW_S1_V5 S1_V5_!6450 V5_0) ?x5903)) (or $x1649 (= (ite MW_S1_V4 S1_V4_!6451 V4_0) ?x3026)))))
 (let (($x86 (and (or (not (or (not R_S1_V1) $x2893)) (= S1_V1_!6442 S1_V1_!6464)) (or $x5851 (= S1_V1_!6447 S1_V1_!6442)) (or $x5726 (= S1_V1_!6447 S1_V1_!6464)) (or $x1000 (= S1_V1_!6474 S1_V1_!6442)) (or $x1901 (= S1_V1_!6474 S1_V1_!6447)) (or $x441 (= S1_V1_!6474 S1_V1_!6464)) (or (not $x256) (= S2_V5_!6456 S2_V5_!6472)) (or $x1862 (= S2_V5_!6456 S2_V5_!6482)) (or $x1096 (= S2_V5_!6461 S2_V5_!6456)) (or $x3753 (= S2_V5_!6461 S2_V5_!6472)) (or $x1212 (= S2_V5_!6461 S2_V5_!6482)) (or $x3196 (= S2_V5_!6472 S2_V5_!6482)) (or (not (or (not R_S1_V1) $x2893)) (= S1_V3_!6443 S1_V3_!6465)) (or $x1487 (= S1_V3_!6443 S1_V3_!6475)) (or $x5851 (= S1_V3_!6448 S1_V3_!6443)) (or $x5726 (= S1_V3_!6448 S1_V3_!6465)) (or $x5054 (= S1_V3_!6448 S1_V3_!6475)) (or $x3849 (= S1_V3_!6465 S1_V3_!6475)) (or (not (or (not R_S1_V1) $x2893)) (= S1_V2_!6444 S1_V2_!6466)) (or $x5851 (= S1_V2_!6449 S1_V2_!6444)) (or $x5726 (= S1_V2_!6449 S1_V2_!6466)) (or $x5054 $x3710) (or $x1000 (= S1_V2_!6476 S1_V2_!6444)) (or $x441 (= S1_V2_!6476 S1_V2_!6466)) (or (not $x5909) (= E1_!6441 E1_!6452)) $x2893 (or (not $x1055) $x5416) (or $x1096 (= S2_V4_!6462 S2_V4_!6457)) (or $x3753 (= S2_V4_!6462 S2_V4_!6473)) (or $x1212 (= S2_V4_!6462 S2_V4_!6483)) (or $x1298 (= S2_V4_!6473 S2_V4_!6457)) (or $x4856 (= S2_V4_!6483 S2_V4_!6457)) (or (not $x2347) $x2419) (or $x1160 (= S1_V5_!6445 S1_V5_!6450)) (or (not (or (not R_S1_V1) (= E1_!6463 E1_!6441))) (= S1_V5_!6467 S1_V5_!6445)) (or $x843 (= S1_V5_!6467 S1_V5_!6450)) (or $x1000 (= S1_V5_!6477 S1_V5_!6445)) (or $x1901 (= S1_V5_!6477 S1_V5_!6450)) (or $x441 (= S1_V5_!6477 S1_V5_!6467)) (or $x1096 (= S2_V1_!6458 S2_V1_!6453)) (or $x3753 (= S2_V1_!6458 S2_V1_!6469)) (or $x1212 (= S2_V1_!6458 S2_V1_!6479)) (or $x1298 (= S2_V1_!6469 S2_V1_!6453)) (or $x3196 (= S2_V1_!6469 S2_V1_!6479)) (or $x4856 (= S2_V1_!6479 S2_V1_!6453)) (or $x1160 (= S1_V4_!6446 S1_V4_!6451)) (or $x1487 (= S1_V4_!6446 S1_V4_!6478)) (or (not (or (not R_S1_V1) (= E1_!6463 E1_!6441))) (= S1_V4_!6468 S1_V4_!6446)) (or $x843 (= S1_V4_!6468 S1_V4_!6451)) (or $x3849 (= S1_V4_!6468 S1_V4_!6478)) (or $x1901 (= S1_V4_!6478 S1_V4_!6451)) (or $x1096 (= S2_V2_!6460 S2_V2_!6455)) (or $x1298 (= S2_V2_!6471 S2_V2_!6455)) (or (not $x209) $x1031) (or $x3196 (= S2_V2_!6471 S2_V2_!6481)) (or $x4856 $x2039) (or (not $x541) $x2680) (or $x1862 $x1530) (or $x1096 $x484) (or $x3753 $x3492) (or $x1212 $x2281) (or $x1298 $x1893) (or $x3196 $x2826) (not MW_S1_V1) (not MW_S1_V2) (or (not MW_S1_V5) W_S1_V5) (or (not MW_S1_V4) W_S1_V4) (or (not MW_S2_V1) W_S2_V1) (or (not MW_S2_V3) W_S2_V3) (or (not MW_S2_V2) W_S2_V2) (or (not MW_S2_V5) W_S2_V5))))
 (or (not $x86) (not $x5026) (and (= ?x5770 ?x680) $x1070 (= ?x3181 ?x3257) $x780 $x2352)))))))))))))))))))))))))))))))))))))))))))))))))))))))))))))))))))))))))))))))))))))))))))))))))))))))))))))
 )
 )
 )
 )
 )
 )
 )
 )
 )
 )
 )
 )
 )
 )
 )
 )
 )
 )
 )
 )
 )
 )
 )
 )
 )
 )
 )
 )
 )
 )
 )
 )
 )
 )
 )
 )
 )
 )
 )
 )
 )
 )
 )
 )
 )
 )
 )
 )
 )
 )
 )
 )
 )
 )
 )
 )
 ))
 (let (($x3987 (not (or (and W_S2_V2 R_E1_V2) (and W_S2_V5 R_E1_V5) R_E1_V4))))
 (let (($x1140 (= DISJ_W_S2_R_E1 $x3987)))
 (let (($x1526 (and W_S2_V5 R_S2_V5)))
 (let (($x2117 (and W_S2_V2 R_S2_V2)))
 (let (($x89 (and W_S2_V3 R_S2_V3)))
 (let (($x5266 (and W_S2_V1 R_S2_V1)))
 (let (($x6026 (= DISJ_W_S2_R_S2 (not (or $x5266 $x89 $x2117 $x1526 R_S2_V4)))))
 (let (($x4871 (and W_S2_V5 R_S1_V5)))
 (let (($x960 (and W_S2_V2 R_S1_V2)))
 (let (($x2320 (and W_S2_V3 R_S1_V3)))
 (let (($x5507 (and W_S2_V1 R_S1_V1)))
 (let (($x4663 (= DISJ_W_S2_R_S1 (not (or $x5507 $x2320 $x960 $x4871 R_S1_V4)))))
 (let (($x6005 (= DISJ_W_S1_W_S2 (not (or W_S2_V3 (and W_S1_V5 W_S2_V5) W_S1_V4)))))
 (let (($x5964 (not R_E1_V3)))
 (let (($x1281 (not (or R_S2_V3 (and W_S1_V5 R_S2_V5) (and W_S1_V4 R_S2_V4)))))
 (let (($x1842 (= DISJ_W_S1_R_S2 $x1281)))
 (let (($x860 (not (or R_S1_V3 (and W_S1_V5 R_S1_V5) (and W_S1_V4 R_S1_V4)))))
 (let (($x2871 (= DISJ_W_S1_R_S1 $x860)))
 (let (($x5878 (not W_S2_V2)))
 (let (($x5795 (not R_S2_V1)))
 (let (($x4088 (and $x5795 $x1649 $x5878 $x2193 DISJ_W_S2_R_S1)))
 (let (($x2700 (and $x1649 $x5292 $x2193 DISJ_W_S2_R_S1)))
 (let (($x3610 (and $x5795 $x6073 $x5878 $x2193 DISJ_W_S2_R_S1)))
 (let (($x994 (and $x6073 $x671 $x2193 DISJ_W_S2_R_S1)))
 (let (($x2896 (and $x5795 $x5878 $x1555 $x2193 DISJ_W_S2_R_S1)))
 (let (($x4154 (and DISJ_W_S1_W_S2 DISJ_W_S2_R_S1)))
 (let (($x1240 (and $x5795 $x1277 $x6073 $x5878 DISJ_W_S2_R_S1)))
 (let (($x2869 (and $x5795 $x1277 $x1649 $x5878 DISJ_W_S2_R_S1)))
 (let (($x433 (and $x5795 $x1649 $x5878 $x1555 DISJ_W_S2_R_S1)))
 (let (($x2566 (and $x5795 $x6073 $x1649 $x5878 DISJ_W_S2_R_S1)))
 (let (($x5922 (and $x5795 $x1277 $x5878 $x1555 DISJ_W_S2_R_S1)))
 (let (($x2759 (and (not W_S2_V1) $x5878)))
 (let (($x2856 (and $x1277 $x671 $x1555 DISJ_W_S2_R_S1)))
 (let (($x30 (and $x5878 DISJ_W_S2_R_S2)))
 (let (($x704 (or $x2018 $x30 $x2850 $x2856 $x1395 $x873 $x2759 $x5922 $x2566 $x433 $x2869 $x1240 $x4154 $x2896 $x994 $x3610 $x2700 $x5791 $x4088)))
 (let (($x1970 (and $x2022 DISJ_W_S1_R_S1)))
 (let (($x4015 (and $x5878 DISJ_W_S2_R_S1 DISJ_W_S1_R_S1)))
 (let (($x4796 (or $x4015 $x2759 $x1970)))
 (let (($x6 (not W_S1_V2)))
 (let (($x2445 (not W_S1_V1)))
 (let (($x1722 (not R_E1_V1)))
 (let (($x4004 (and DISJ_W_S1_R_E1 $x1722 $x2445 $x6 $x4796 $x704 W_S1_V3 W_S2_V4 $x2871 $x1842 $x5964 $x6005 $x4663 $x6026 $x1140 $x5232 $x2612 $x191)))
 (and $x4004 $x1702 $x2402 $x1126 $x951 $x3137 $x987 $x2614 $x3235 $x401 $x4156 $x1659)))))))))))))))))))))))))))))))))))))))))))))))))))))))))))))))))))))))))
(check-sat)
